
  17    0


   0  12 2 3 4 5 6 10 11 12 13 14 15 16 
   5   2 9 7 
   1   2 9 7 
  10   2 8 7 
   2   2 8 7 
   3   2 8 7 
   3   1 17
   2   1 17
   8   1 17
   5   1 17
   9   1 17
   4   1 17
   4   1 17
   4   1 17
   8   1 17
   6   1 17
   0   0 
